Si18 Ag80                               
   1.00000000000000     
     5.8692000000000002  -10.1652000000000005    0.0000000000000000
     5.8688000000000002   10.1652000000000005    0.0000000000000000
     0.0000000000000000    0.0000000000000000   25.0000000000000000
   Si   Ag
    18    80
Selective dynamics
Direct
  0.3850011105689551  0.4410295770492725  0.6017511116536503   T   T   T
  0.2738796791829253  0.5477778978682548  0.5701306398434255   T   T   T
  0.6022444870244583  0.5490589201407098  0.5712588043291967   T   T   T
  0.9467700980162251  0.5490739960075457  0.5712648957696391   T   T   T
  0.2793832721581127  0.8881569956561184  0.6020399932513392   T   T   T
  0.6087463137576821  0.8881543714196141  0.6020405898494570   T   T   T
  0.9470882319106738  0.8942504451960390  0.5716012241384901   T   T   T
  0.2737988289039360  0.2231438633085291  0.5702246920572160   T   T   T
  0.6083670723374917  0.2167610706237012  0.6025019615829068   T   T   T
  0.0560730184724621  0.4410494998619816  0.6017462420098818   T   T   T
  0.7172816826425272  0.7792120790693845  0.5713396191157208   T   T   T
  0.0619991585812347  0.7792157703131372  0.5713454562525584   T   T   T
  0.3908824985492204  0.7817479241902342  0.5704752699034743   T   T   T
  0.7153692853635746  0.1060871401491997  0.5704002855173479   T   T   T
  0.0559787628057695  0.1119122410287177  0.6016964105208642   T   T   T
  0.3907671570609543  0.1060788707756644  0.5704061595729848   T   T   T
  0.7166823451490010  0.4332972255453935  0.5709119605883501   T   T   T
  0.9493296616901108  0.2231535742645089  0.5702227179697382   T   T   T
  0.0813261096547323  0.9140846240359991  0.4811709865050902   T   T   T
  0.0814515265924835  0.4173045185977572  0.4900462129508584   T   T   T
  0.0812328588390831  0.6661746498160918  0.4809481231459914   T   T   T
  0.3334575253521406  0.1656713202800519  0.4771467262767795   T   T   T
  0.3358564365334069  0.4173058998465917  0.4900496395297808   T   T   T
  0.3333105441576082  0.6666156551080793  0.4771407413403738   T   T   T
  0.3292656946929614  0.9139798757226837  0.4906517088209843   T   T   T
  0.5850137433162145  0.4178288875867133  0.4806421332628437   T   T   T
  0.5849456017324932  0.6661757424660658  0.4809469404959070   T   T   T
  0.5847270145331860  0.9139804807820703  0.4906522651135362   T   T   T
  0.8322233453037541  0.1656737721402834  0.4771504450290860   T   T   T
  0.8328274448151489  0.4178368093681726  0.4806455585084065   T   T   T
  0.8331576850711949  0.6663152816193992  0.4799637185936946   T   T   T
  0.8327607266463323  0.9140741211011586  0.4811729478688963   T   T   T
  0.0815378440134012  0.1630705197567603  0.4900215880861848   T   T   T
  0.5848622065871985  0.1697150624201503  0.4908300590678957   T   T   T
  0.7473150985661424  0.2492809120868713  0.3866229217779227   T   T   T
  0.7473353121309229 -0.0024080232598480  0.3866739789668565   T   T   T
  0.5019801108007866  0.7523766059564843  0.3866832452125915   T   T   T
  0.4963896573297885  0.4981094065088065  0.3875543491255108   T   T   T
  0.5019677965753957  0.2492793308298222  0.3866226209160756   T   T   T
  0.2485987026821028  0.2510785659503547  0.3886396575206891   T   T   T
  0.2503976051304639  0.7523762517151407  0.3866832860535195   T   T   T
  0.2484931601750441  0.4969831964515853  0.3885678496227730   T   T   T
  0.7501283846496725  0.5002505937252120  0.3851148015361180   T   T   T
  0.2502580186963586 -0.0024089345269109  0.3866725633727033   T   T   T
 -0.0002925247897784  0.7497483536211073  0.3852299078104629   T   T   T
  0.0017231382486322  0.4981075972153673  0.3875542219982420   T   T   T
  0.4999263526321060 -0.0001492859066553  0.3932391738347186   T   T   T
  0.7500428049109770  0.7497480390634830  0.3852297356272271   T   T   T
  0.0024815715344257  0.2510744549045922  0.3886378532955277   T   T   T
  0.0015845043768377  0.0031656329373498  0.3877364501667943   T   T   T
  0.9166669999999968  0.8333330000000032  0.2916999999999987   F   F   F
  0.9166669999999968  0.5833330000000032  0.2916999999999987   F   F   F
  0.9166669999999968  0.3333330000000032  0.2916999999999987   F   F   F
  0.6666669999999968  0.0833330000000032  0.2916999999999987   F   F   F
  0.6666669999999968  0.8333330000000032  0.2916999999999987   F   F   F
  0.6666669999999968  0.5833330000000032  0.2916999999999987   F   F   F
  0.6666669999999968  0.3333330000000032  0.2916999999999987   F   F   F
  0.4166669999999968  0.0833330000000032  0.2916999999999987   F   F   F
  0.4166669999999968  0.8333330000000032  0.2916999999999987   F   F   F
  0.4166669999999968  0.5833330000000032  0.2916999999999987   F   F   F
  0.4166669999999968  0.3333330000000032  0.2916999999999987   F   F   F
  0.1666669999999968  0.0833330000000032  0.2916999999999987   F   F   F
  0.1666669999999968  0.8333330000000032  0.2916999999999987   F   F   F
  0.1666669999999968  0.5833330000000032  0.2916999999999987   F   F   F
  0.1666669999999968  0.3333330000000032  0.2916999999999987   F   F   F
  0.9166669999999968  0.0833330000000032  0.2916999999999987   F   F   F
  0.3333330000000032  0.1666669999999968  0.1957999999999984   F   F   F
  0.0833330000000032  0.9166669999999968  0.1957999999999984   F   F   F
  0.0833330000000032  0.6666669999999968  0.1957999999999984   F   F   F
  0.0833330000000032  0.4166669999999968  0.1957999999999984   F   F   F
  0.0833330000000032  0.1666669999999968  0.1957999999999984   F   F   F
  0.3333330000000032  0.4166669999999968  0.1957999999999984   F   F   F
  0.3333330000000032  0.6666669999999968  0.1957999999999984   F   F   F
  0.3333330000000032  0.9166669999999968  0.1957999999999984   F   F   F
  0.5833330000000032  0.1666669999999968  0.1957999999999984   F   F   F
  0.8333330000000032  0.9166669999999968  0.1957999999999984   F   F   F
  0.8333330000000032  0.6666669999999968  0.1957999999999984   F   F   F
  0.8333330000000032  0.4166669999999968  0.1957999999999984   F   F   F
  0.8333330000000032  0.1666669999999968  0.1957999999999984   F   F   F
  0.5833330000000032  0.9166669999999968  0.1957999999999984   F   F   F
  0.5833330000000032  0.6666669999999968  0.1957999999999984   F   F   F
  0.5833330000000032  0.4166669999999968  0.1957999999999984   F   F   F
  0.0000000000000000  0.0000000000000000  0.1000000000000014   F   F   F
  0.7500000000000000  0.7500000000000000  0.1000000000000014   F   F   F
  0.7500000000000000  0.5000000000000000  0.1000000000000014   F   F   F
  0.7500000000000000  0.2500000000000000  0.1000000000000014   F   F   F
  0.7500000000000000  0.0000000000000000  0.1000000000000014   F   F   F
  0.5000000000000000  0.7500000000000000  0.1000000000000014   F   F   F
  0.5000000000000000  0.2500000000000000  0.1000000000000014   F   F   F
  0.5000000000000000  0.0000000000000000  0.1000000000000014   F   F   F
  0.2500000000000000  0.7500000000000000  0.1000000000000014   F   F   F
  0.2500000000000000  0.5000000000000000  0.1000000000000014   F   F   F
  0.2500000000000000  0.2500000000000000  0.1000000000000014   F   F   F
  0.2500000000000000  0.0000000000000000  0.1000000000000014   F   F   F
  0.0000000000000000  0.7500000000000000  0.1000000000000014   F   F   F
  0.0000000000000000  0.5000000000000000  0.1000000000000014   F   F   F
  0.0000000000000000  0.2500000000000000  0.1000000000000014   F   F   F
  0.5000000000000000  0.5000000000000000  0.1000000000000014   F   F   F
 
  0.00000000E+00  0.00000000E+00  0.00000000E+00
  0.00000000E+00  0.00000000E+00  0.00000000E+00
  0.00000000E+00  0.00000000E+00  0.00000000E+00
  0.00000000E+00  0.00000000E+00  0.00000000E+00
  0.00000000E+00  0.00000000E+00  0.00000000E+00
  0.00000000E+00  0.00000000E+00  0.00000000E+00
  0.00000000E+00  0.00000000E+00  0.00000000E+00
  0.00000000E+00  0.00000000E+00  0.00000000E+00
  0.00000000E+00  0.00000000E+00  0.00000000E+00
  0.00000000E+00  0.00000000E+00  0.00000000E+00
  0.00000000E+00  0.00000000E+00  0.00000000E+00
  0.00000000E+00  0.00000000E+00  0.00000000E+00
  0.00000000E+00  0.00000000E+00  0.00000000E+00
  0.00000000E+00  0.00000000E+00  0.00000000E+00
  0.00000000E+00  0.00000000E+00  0.00000000E+00
  0.00000000E+00  0.00000000E+00  0.00000000E+00
  0.00000000E+00  0.00000000E+00  0.00000000E+00
  0.00000000E+00  0.00000000E+00  0.00000000E+00
  0.00000000E+00  0.00000000E+00  0.00000000E+00
  0.00000000E+00  0.00000000E+00  0.00000000E+00
  0.00000000E+00  0.00000000E+00  0.00000000E+00
  0.00000000E+00  0.00000000E+00  0.00000000E+00
  0.00000000E+00  0.00000000E+00  0.00000000E+00
  0.00000000E+00  0.00000000E+00  0.00000000E+00
  0.00000000E+00  0.00000000E+00  0.00000000E+00
  0.00000000E+00  0.00000000E+00  0.00000000E+00
  0.00000000E+00  0.00000000E+00  0.00000000E+00
  0.00000000E+00  0.00000000E+00  0.00000000E+00
  0.00000000E+00  0.00000000E+00  0.00000000E+00
  0.00000000E+00  0.00000000E+00  0.00000000E+00
  0.00000000E+00  0.00000000E+00  0.00000000E+00
  0.00000000E+00  0.00000000E+00  0.00000000E+00
  0.00000000E+00  0.00000000E+00  0.00000000E+00
  0.00000000E+00  0.00000000E+00  0.00000000E+00
  0.00000000E+00  0.00000000E+00  0.00000000E+00
  0.00000000E+00  0.00000000E+00  0.00000000E+00
  0.00000000E+00  0.00000000E+00  0.00000000E+00
  0.00000000E+00  0.00000000E+00  0.00000000E+00
  0.00000000E+00  0.00000000E+00  0.00000000E+00
  0.00000000E+00  0.00000000E+00  0.00000000E+00
  0.00000000E+00  0.00000000E+00  0.00000000E+00
  0.00000000E+00  0.00000000E+00  0.00000000E+00
  0.00000000E+00  0.00000000E+00  0.00000000E+00
  0.00000000E+00  0.00000000E+00  0.00000000E+00
  0.00000000E+00  0.00000000E+00  0.00000000E+00
  0.00000000E+00  0.00000000E+00  0.00000000E+00
  0.00000000E+00  0.00000000E+00  0.00000000E+00
  0.00000000E+00  0.00000000E+00  0.00000000E+00
  0.00000000E+00  0.00000000E+00  0.00000000E+00
  0.00000000E+00  0.00000000E+00  0.00000000E+00
  0.00000000E+00  0.00000000E+00  0.00000000E+00
  0.00000000E+00  0.00000000E+00  0.00000000E+00
  0.00000000E+00  0.00000000E+00  0.00000000E+00
  0.00000000E+00  0.00000000E+00  0.00000000E+00
  0.00000000E+00  0.00000000E+00  0.00000000E+00
  0.00000000E+00  0.00000000E+00  0.00000000E+00
  0.00000000E+00  0.00000000E+00  0.00000000E+00
  0.00000000E+00  0.00000000E+00  0.00000000E+00
  0.00000000E+00  0.00000000E+00  0.00000000E+00
  0.00000000E+00  0.00000000E+00  0.00000000E+00
  0.00000000E+00  0.00000000E+00  0.00000000E+00
  0.00000000E+00  0.00000000E+00  0.00000000E+00
  0.00000000E+00  0.00000000E+00  0.00000000E+00
  0.00000000E+00  0.00000000E+00  0.00000000E+00
  0.00000000E+00  0.00000000E+00  0.00000000E+00
  0.00000000E+00  0.00000000E+00  0.00000000E+00
  0.00000000E+00  0.00000000E+00  0.00000000E+00
  0.00000000E+00  0.00000000E+00  0.00000000E+00
  0.00000000E+00  0.00000000E+00  0.00000000E+00
  0.00000000E+00  0.00000000E+00  0.00000000E+00
  0.00000000E+00  0.00000000E+00  0.00000000E+00
  0.00000000E+00  0.00000000E+00  0.00000000E+00
  0.00000000E+00  0.00000000E+00  0.00000000E+00
  0.00000000E+00  0.00000000E+00  0.00000000E+00
  0.00000000E+00  0.00000000E+00  0.00000000E+00
  0.00000000E+00  0.00000000E+00  0.00000000E+00
  0.00000000E+00  0.00000000E+00  0.00000000E+00
  0.00000000E+00  0.00000000E+00  0.00000000E+00
  0.00000000E+00  0.00000000E+00  0.00000000E+00
  0.00000000E+00  0.00000000E+00  0.00000000E+00
  0.00000000E+00  0.00000000E+00  0.00000000E+00
  0.00000000E+00  0.00000000E+00  0.00000000E+00
  0.00000000E+00  0.00000000E+00  0.00000000E+00
  0.00000000E+00  0.00000000E+00  0.00000000E+00
  0.00000000E+00  0.00000000E+00  0.00000000E+00
  0.00000000E+00  0.00000000E+00  0.00000000E+00
  0.00000000E+00  0.00000000E+00  0.00000000E+00
  0.00000000E+00  0.00000000E+00  0.00000000E+00
  0.00000000E+00  0.00000000E+00  0.00000000E+00
  0.00000000E+00  0.00000000E+00  0.00000000E+00
  0.00000000E+00  0.00000000E+00  0.00000000E+00
  0.00000000E+00  0.00000000E+00  0.00000000E+00
  0.00000000E+00  0.00000000E+00  0.00000000E+00
  0.00000000E+00  0.00000000E+00  0.00000000E+00
  0.00000000E+00  0.00000000E+00  0.00000000E+00
  0.00000000E+00  0.00000000E+00  0.00000000E+00
  0.00000000E+00  0.00000000E+00  0.00000000E+00
  0.00000000E+00  0.00000000E+00  0.00000000E+00
